60
Coordinates from ORCA-job bucky
  C          -2.29030270972793      4.69063395763411     -2.07661178843375
  C           4.62560590454680      4.18003298472400     -1.19015395463736
  C           1.18099378293667     -4.84715944122692      4.31868623834327
  C           4.58261976635995     -2.02537036939883      2.44768257028742
  C          -4.42581642642990     -2.09664451292193      2.24960302008582
  C          -1.35011673850113     -4.46687715753824      3.98824679504833
  C          -4.33325568416602      3.14335993975395     -1.31358115310551
  C          -5.29876717357252      0.08484791414088      0.82169955345103
  C           2.61205897674081      5.09592712606821     -1.88103993038146
  C           5.44866790154555      0.17442524091999      1.22892528146104
  C          -2.49483953630821     -4.77213088676085     -1.72432423715874
  C          -3.82125554360239     -1.29889279288927     -4.29311978190191
  C          -0.36729576072307      1.27349084303567     -5.54704477694594
  C           3.64763252083084     -0.74387893354366     -3.70363925438526
  C           1.85752573035027     -4.57339565618714     -1.63793491835036
  C          -4.25811567803688      1.22955790358694     -4.66325726634355
  C           1.98455466456702      2.31527947848997     -4.89092668621831
  C           4.73268942291736     -1.45665085112112     -2.10159588815394
  C           0.82155996299011     -5.63457299259049      0.19621426287053
  C          -4.19192208586264     -3.57982176992553     -1.22133002002254
  C           1.43199176603487      4.21097834349006      3.18617992191097
  C           2.16145178266325      2.05390498283478      4.47165480212800
  C           0.44241835801800      0.77973481766852      5.17963828786640
  C          -1.71717133298422      2.07751795677302      4.45664088254524
  C          -1.11502587198465      3.90773732511750      3.07976304518916
  C          -0.84383038675231      5.31755595897876     -0.22824565067124
  C           4.08154314776930      3.91482546661234      1.33190357574899
  C           3.54334040340382     -1.47096717616769      4.32764397018679
  C          -1.92453489937267     -2.52807396910432      4.82396258917786
  C          -4.62709662406010      1.72616337521787      1.76814568963617
  C           2.07408843111918     -2.54070416537502      5.11063531772850
  C          -3.25057150415694     -1.49388886695990      3.97543962531710
  C          -4.05840441621995      2.95972217827034      0.96978388601153
  C           1.54161649680992      5.48862208015259     -0.07052622556685
  C           4.45512036117114      2.24080304504292      2.39042912819754
  C          -1.20419049831077     -5.69481471976777      0.06453063838209
  C          -4.78536653606503     -1.99570239354021     -2.55532964389801
  C          -2.11764430640221      2.36230560170226     -5.06346621906346
  C           3.84988014820672      1.23712707474941     -3.84301415682479
  C           4.02886553135356     -3.19859542613888     -0.90679075755882
  C           1.60736711880770     -1.77579403706877     -4.62371611324521
  C           0.82855354489008     -3.66039002682609     -3.43652487640991
  C          -1.50382462566295     -3.76476639370740     -3.46920634637374
  C          -2.41919122992997     -1.92514619262167     -4.58916962187817
  C          -0.45460724546995     -0.51635955634054     -5.43935339650655
  C           1.36495745751063      4.31756685446531     -3.69073968842661
  C           5.47985263825253      0.18892781456437     -1.04752587006848
  C           2.28121323358561     -5.32339899191951      2.40292630486297
  C          -3.95576256158658     -3.54721532811663      1.42996000753699
  C          -5.08421766865704      1.81460499835493     -2.31989709219435
  C          -3.32624138276214      1.03012169486732      3.74869553754276
  C          -2.02820808525934      4.36194237916166      1.75893451289950
  C           2.57764357597118      4.85635934491319      1.72877417541243
  C           3.41060381610204      1.28022682032239      4.06866252363671
  C           0.39137277606813     -1.23215756172759      5.44841028945201
  C          -2.29898622564626     -4.91033722358039      2.29728780281492
  C          -5.39900563199883      0.16139338647695     -1.29561536243308
  C          -1.12043375830219      4.11077285929106     -3.86165466112077
  C           5.01940645140377      2.02060303784631     -2.19956164197386
  C           4.00080645558798     -3.53335439216127      1.61382974452046
