8
Coordinates from ORCA-job .\Ethan
  C   -3.57433707349125      0.11213666453469      0.17213858784102
  H   -3.11670271296312     -0.54662788362356      0.92884575092416
  C   -2.62946517024805      0.35787201006640     -1.00339540457517
  H   -4.51242945245959     -0.36578815664572     -0.15558505777272
  H   -3.84433713813473      1.05419905849745      0.67781755227377
  H   -2.36053450842529     -0.58357216302870     -1.51077454382485
  H   -3.08575912964555      1.01913023513030     -1.75875147444946
  H   -1.69019481463241      0.83368023506913     -0.67549541041674
