6
Coordinates from ORCA-job water_dimer E -152.027836836317
  O          -4.11285577910535      2.50046829412567      0.39737058426803
  H          -3.33127793935053      1.97410277483604      0.26249980740982
  H          -4.36132530199184      2.80849239390185     -0.46296192696090
  O          -1.59400132484743      0.95170361837659      0.15345109622244
  H          -1.00919316505346      1.37530823904345      0.76892288239762
  H          -1.69900648965137      0.06188467971639      0.46513755666300
